branch-and-cut/resultados/B/b16.sol
127
29
39 91
28 58
87 25
72 39
92 76
20 29
37 91
92 91
92 97
9 87
54 82
87 82
33 59
34 97
92 29
30 81
21 60
58 48
64 12
97 73
72 25
6 28
12 17
69 87
29 48
33 73
60 29
6 64
30 34
