branch-and-cut/resultados/B/b16.log

Gurobi 10.0.3 (linux64) logging started Fri Dec 15 17:20:55 2023

Set parameter LogFile to value "resultados/B/b16.log"
Set parameter Cutoff to value 166
Gurobi Optimizer version 10.0.3 build v10.0.3rc0 (linux64)

CPU model: Intel(R) Core(TM) i7-8650U CPU @ 1.90GHz, instruction set [SSE2|AVX|AVX2]
Thread count: 4 physical cores, 8 logical processors, using up to 8 threads

Optimize a model with 17 rows, 200 columns and 64 nonzeros
Model fingerprint: 0xfe811f86
Variable types: 0 continuous, 200 integer (200 binary)
Coefficient statistics:
  Matrix range     [1e+00, 1e+00]
  Objective range  [1e+00, 1e+01]
  Bounds range     [1e+00, 1e+00]
  RHS range        [1e+00, 1e+00]
Presolve removed 1 rows and 1 columns
Presolve time: 0.00s
Presolved: 16 rows, 199 columns, 63 nonzeros
Variable types: 0 continuous, 199 integer (199 binary)

Root relaxation: objective 5.600000e+01, 14 iterations, 0.00 seconds (0.00 work units)

    Nodes    |    Current Node    |     Objective Bounds      |     Work
 Expl Unexpl |  Obj  Depth IntInf | Incumbent    BestBd   Gap | It/Node Time

     0     0   56.00000    0    -          -   56.00000      -     -    0s
     0     0   78.00000    0    6          -   78.00000      -     -    0s
     0     0   94.00000    0    -          -   94.00000      -     -    0s
     0     0   99.00000    0    -          -   99.00000      -     -    0s
     0     0  101.00000    0   20          -  101.00000      -     -    0s
     0     0  103.00000    0   16          -  103.00000      -     -    0s
     0     0  104.50000    0   26          -  104.50000      -     -    0s
     0     0  107.31250    0   21          -  107.31250      -     -    0s
     0     0  108.25000    0    7          -  108.25000      -     -    0s
     0     0  108.50000    0    9          -  108.50000      -     -    0s
     0     2  108.50000    0    7          -  108.50000      -     -    0s
H 1098   799                     146.0000000  114.85714  21.3%  11.0    4s
  1126   821  119.13661   16   59  146.00000  119.02941  18.5%  11.4    5s
  1654  1085  134.28571   28   38  146.00000  120.69766  17.3%  16.1   10s
  2316  1379  131.50000   39    8  146.00000  121.44872  16.8%  16.2   15s
  2843  1599  123.46000   26   47  146.00000  121.68750  16.7%  16.2   20s
H 3144   561                     127.0000000  122.08434  3.87%  16.3   23s
  3372   456     cutoff   25       127.00000  122.98716  3.16%  17.0   25s
  4314     0     cutoff   29       127.00000  125.00000  1.57%  18.7   30s

Cutting planes:
  User: 445
  Gomory: 13
  MIR: 8
  Flow cover: 63
  Zero half: 90
  Lazy constraints: 786

Explored 4535 nodes (82519 simplex iterations) in 30.25 seconds (3.45 work units)
Thread count was 8 (of 8 available processors)

Solution count 2: 127 146 

Optimal solution found (tolerance 1.00e-04)
Best objective 1.270000000000e+02, best bound 1.270000000000e+02, gap 0.0000%

User-callback calls 10355, time in user-callback 24.78 sec
